(set-logic QF_UF)
(declare-sort Z 0)
(declare-fun circuit () Bool)
(declare-fun input () Bool)
(declare-fun reg () Bool)
(declare-fun flash () Z)
(declare-fun nf () Z)
(declare-fun nf0 () Z)
(assert (or (not (= (not (= nf0 flash)) false)) (not (not (= nf0 flash))) false))
(assert (= (not (= nf0 flash)) false))
(assert (not (= nf0 flash)))
(assert (not false))
(check-sat)
(exit)
